p edge 75 278
e 1 31
e 1 51
e 1 55
e 1 70
e 2 4
e 2 11
e 2 31
e 2 33
e 2 51
e 2 65
e 2 69
e 2 72
e 3 19
e 3 21
e 3 27
e 3 39
e 3 40
e 3 42
e 3 43
e 3 48
e 3 50
e 4 13
e 4 19
e 4 24
e 4 31
e 4 33
e 4 37
e 4 47
e 4 72
e 5 8
e 5 11
e 5 17
e 5 34
e 5 54
e 5 61
e 6 11
e 6 24
e 6 25
e 6 32
e 6 35
e 6 38
e 6 48
e 6 51
e 6 54
e 6 64
e 7 10
e 7 21
e 7 24
e 7 30
e 7 31
e 7 40
e 7 43
e 7 69
e 7 71
e 8 10
e 8 14
e 8 27
e 8 40
e 8 60
e 8 63
e 9 14
e 9 34
e 9 44
e 9 58
e 9 61
e 9 65
e 9 70
e 10 20
e 10 40
e 10 44
e 10 61
e 11 12
e 11 34
e 11 38
e 11 51
e 12 36
e 12 50
e 12 56
e 12 66
e 13 17
e 13 34
e 13 41
e 13 50
e 13 53
e 13 61
e 13 75
e 14 25
e 14 27
e 14 28
e 14 44
e 14 53
e 14 57
e 15 35
e 15 54
e 15 68
e 16 22
e 16 27
e 16 41
e 16 46
e 16 51
e 16 69
e 17 19
e 17 25
e 17 43
e 17 49
e 17 50
e 17 52
e 17 69
e 17 72
e 18 22
e 18 30
e 18 44
e 18 64
e 18 68
e 18 71
e 19 25
e 19 38
e 19 41
e 19 44
e 19 47
e 19 52
e 19 55
e 19 72
e 20 27
e 20 32
e 20 42
e 20 46
e 20 53
e 20 54
e 21 22
e 21 23
e 21 27
e 21 48
e 21 51
e 21 58
e 21 69
e 22 23
e 22 25
e 22 56
e 22 73
e 23 25
e 23 30
e 23 31
e 23 38
e 23 51
e 23 60
e 23 73
e 24 62
e 24 66
e 24 67
e 25 36
e 25 38
e 25 52
e 25 59
e 25 63
e 25 71
e 26 31
e 26 65
e 26 74
e 27 34
e 27 55
e 27 63
e 27 70
e 28 32
e 28 41
e 28 42
e 28 68
e 28 73
e 29 39
e 29 40
e 29 42
e 29 44
e 29 46
e 29 51
e 29 53
e 30 31
e 30 35
e 30 54
e 30 57
e 30 60
e 30 65
e 30 75
e 31 58
e 31 65
e 31 71
e 32 36
e 32 37
e 32 40
e 32 50
e 32 55
e 33 40
e 34 44
e 34 46
e 34 48
e 34 50
e 34 60
e 34 72
e 34 73
e 35 41
e 35 50
e 36 53
e 36 55
e 36 56
e 36 62
e 36 63
e 37 56
e 37 58
e 38 49
e 38 67
e 38 75
e 39 46
e 39 49
e 39 52
e 39 63
e 40 51
e 40 63
e 40 64
e 40 70
e 41 43
e 41 74
e 42 48
e 42 54
e 42 61
e 42 73
e 43 74
e 43 75
e 44 47
e 44 49
e 44 53
e 44 54
e 44 55
e 44 58
e 46 52
e 46 55
e 46 60
e 46 65
e 47 54
e 48 74
e 49 50
e 50 59
e 50 62
e 50 69
e 51 52
e 51 56
e 51 74
e 52 59
e 52 63
e 52 71
e 53 64
e 53 69
e 54 59
e 54 60
e 55 60
e 55 67
e 55 69
e 56 58
e 56 60
e 56 65
e 57 64
e 57 71
e 57 72
e 58 66
e 58 72
e 59 62
e 59 72
e 61 65
e 61 72
e 62 63
e 63 65
e 63 68
e 63 71
e 64 66
e 64 73
e 66 69
e 67 68
e 68 69
e 70 75
e 72 75
